benchmark/results/graph__10-1000-0.10-02_10/graph__10-1000-0.10-02_10_QuintonOs_Benders_primal_sub.lp
\ This file has been generated by DOcplex
\ ENCODING=ISO-8859-1
\Problem name: Quinton Bounded Benders_primal_sub

Maximize
 obj: tau
Subject To
 c1: tau <= 0.001158748552
 c2: y_a0_proc_0 + y_a0_proc_1 - tau = 0
 c3: y_a0_proc_0 <= 1
 c4: y_a0_proc_1 <= 0
 c5: tau <= 0.000900090009
 c6: y_a1_proc_0 + y_a1_proc_1 - tau = 0
 c7: y_a1_proc_0 <= 1
 c8: y_a1_proc_1 <= 0
 c9: tau <= 0.001270648030
 c10: y_a2_proc_0 + y_a2_proc_1 - tau = 0
 c11: y_a2_proc_0 <= 0
 c12: y_a2_proc_1 <= 1
 c13: tau <= 0.000829875519
 c14: y_a3_proc_1 - tau = 0
 c15: y_a3_proc_1 <= 1
 c16: tau <= 0.001976284585
 c17: y_a4_proc_0 + y_a4_proc_1 - tau = 0
 c18: y_a4_proc_0 <= 0
 c19: y_a4_proc_1 <= 1
 c20: tau <= 0.001183431953
 c21: y_a5_proc_0 + y_a5_proc_1 - tau = 0
 c22: y_a5_proc_0 <= 1
 c23: y_a5_proc_1 <= 0
 c24: tau <= 0.001114827202
 c25: y_a6_proc_0 - tau = 0
 c26: y_a6_proc_0 <= 1
 c27: tau <= 0.000975609756
 c28: y_a7_proc_1 - tau = 0
 c29: y_a7_proc_1 <= 1
 c30: tau <= 0.000865800866
 c31: y_a8_proc_0 + y_a8_proc_1 - tau = 0
 c32: y_a8_proc_0 <= 1
 c33: y_a8_proc_1 <= 0
 c34: tau <= 0.000846023689
 c35: y_a9_proc_0 + y_a9_proc_1 - tau = 0
 c36: y_a9_proc_0 <= 0
 c37: y_a9_proc_1 <= 1
 c38: u_a0 - u_a1 - 1111 y_a1_proc_0 - 1157 y_a1_proc_1 >= 0
 c39: u_a2 - u_a1 - 1111 y_a1_proc_0 - 1157 y_a1_proc_1 >= 0
 c40: u_a3 - u_a2 - 946 y_a2_proc_0 - 787 y_a2_proc_1 >= 0
 c41: u_a4 - u_a0 - 863 y_a0_proc_0 - 885 y_a0_proc_1 >= -1
 c42: u_a5 - u_a2 - 946 y_a2_proc_0 - 787 y_a2_proc_1 >= -1
 c43: u_a6 - u_a5 - 845 y_a5_proc_0 - 1140 y_a5_proc_1 >= 0
 c44: u_a7 - u_a6 - 897 y_a6_proc_0 >= -1
 c45: u_a0 - u_a8 - 1155 y_a8_proc_0 - 1173 y_a8_proc_1 >= 0
 c46: u_a2 - u_a9 - 1270 y_a9_proc_0 - 1182 y_a9_proc_1 >= 0
 c47: u_a7 - u_a0 - 863 y_a0_proc_0 - 885 y_a0_proc_1 >= -1
 c48: u_a4 - u_a2 - 946 y_a2_proc_0 - 787 y_a2_proc_1 >= -1
 c49: u_a5 - u_a3 - 1205 y_a3_proc_1 >= -1
 c50: u_a1 - u_a9 - 1270 y_a9_proc_0 - 1182 y_a9_proc_1 >= 0
 c51: u_a8 - u_a4 - 915 y_a4_proc_0 - 506 y_a4_proc_1 >= 0
 c52: u_a1 - u_a7 - 1025 y_a7_proc_1 >= 0
 c53: u_a6 - u_a7 - 1025 y_a7_proc_1 >= 0
 c54: - 1270 y_a9_proc_0 - 1182 y_a9_proc_1 >= -1
 c55: u_a5 - u_a0 - 863 y_a0_proc_0 - 885 y_a0_proc_1 >= -1
 c56: u_a1 - u_a0 - 885 y_a0_proc_1 >= -2541
 c57: u_a1 - u_a0 - 863 y_a0_proc_0 >= -1
 c58: u_a0 - u_a1 - 1157 y_a1_proc_1 >= -2540
 c59: u_a0 - u_a1 - 1111 y_a1_proc_0 >= 0
 c60: u_a2 - u_a0 - 885 y_a0_proc_1 >= -1282
 c61: u_a2 - u_a0 - 863 y_a0_proc_0 >= -1282
 c62: u_a0 - u_a2 - 787 y_a2_proc_1 >= -1259
 c63: u_a0 - u_a2 - 946 y_a2_proc_0 >= -1259
 c64: u_a3 - u_a0 - 885 y_a0_proc_1 >= -1282
 c65: u_a0 - u_a3 - 1205 y_a3_proc_1 >= -1259
 c66: u_a4 - u_a0 - 885 y_a0_proc_1 >= -1282
 c67: u_a4 - u_a0 - 863 y_a0_proc_0 >= -1282
 c68: u_a0 - u_a4 - 506 y_a4_proc_1 >= -1259
 c69: u_a0 - u_a4 - 915 y_a4_proc_0 >= -1259
 c70: u_a5 - u_a0 - 885 y_a0_proc_1 >= -2541
 c71: u_a5 - u_a0 - 863 y_a0_proc_0 >= -1
 c72: u_a0 - u_a5 - 1140 y_a5_proc_1 >= -2540
 c73: u_a0 - u_a5 - 845 y_a5_proc_0 >= 0
 c74: u_a6 - u_a0 - 863 y_a0_proc_0 >= 0
 c75: u_a0 - u_a6 - 897 y_a6_proc_0 >= -1
 c76: u_a7 - u_a0 - 885 y_a0_proc_1 >= -1282
 c77: u_a0 - u_a7 - 1025 y_a7_proc_1 >= -1259
 c78: u_a8 - u_a0 - 885 y_a0_proc_1 >= -2541
 c79: u_a8 - u_a0 - 863 y_a0_proc_0 >= -1
 c80: u_a0 - u_a8 - 1173 y_a8_proc_1 >= -2540
 c81: u_a0 - u_a8 - 1155 y_a8_proc_0 >= 0
 c82: u_a9 - u_a0 - 885 y_a0_proc_1 >= -1259
 c83: u_a9 - u_a0 - 863 y_a0_proc_0 >= -1259
 c84: u_a0 - u_a9 - 1182 y_a9_proc_1 >= -1282
 c85: u_a0 - u_a9 - 1270 y_a9_proc_0 >= -1282
 c86: u_a2 - u_a1 - 1157 y_a1_proc_1 >= -1259
 c87: u_a2 - u_a1 - 1111 y_a1_proc_0 >= -1259
 c88: u_a1 - u_a2 - 787 y_a2_proc_1 >= -1282
 c89: u_a1 - u_a2 - 946 y_a2_proc_0 >= -1282
 c90: u_a3 - u_a1 - 1157 y_a1_proc_1 >= -1259
 c91: u_a1 - u_a3 - 1205 y_a3_proc_1 >= -1282
 c92: u_a4 - u_a1 - 1157 y_a1_proc_1 >= -1259
 c93: u_a4 - u_a1 - 1111 y_a1_proc_0 >= -1259
 c94: u_a1 - u_a4 - 506 y_a4_proc_1 >= -1282
 c95: u_a1 - u_a4 - 915 y_a4_proc_0 >= -1282
 c96: u_a5 - u_a1 - 1157 y_a1_proc_1 >= -2541
 c97: u_a5 - u_a1 - 1111 y_a1_proc_0 >= -1
 c98: u_a1 - u_a5 - 1140 y_a5_proc_1 >= -2540
 c99: u_a1 - u_a5 - 845 y_a5_proc_0 >= 0
 c100: u_a6 - u_a1 - 1111 y_a1_proc_0 >= 0
 c101: u_a1 - u_a6 - 897 y_a6_proc_0 >= -1
 c102: u_a7 - u_a1 - 1157 y_a1_proc_1 >= -1282
 c103: u_a1 - u_a7 - 1025 y_a7_proc_1 >= -1259
 c104: u_a8 - u_a1 - 1157 y_a1_proc_1 >= -2541
 c105: u_a8 - u_a1 - 1111 y_a1_proc_0 >= -1
 c106: u_a1 - u_a8 - 1173 y_a8_proc_1 >= -2540
 c107: u_a1 - u_a8 - 1155 y_a8_proc_0 >= 0
 c108: u_a9 - u_a1 - 1157 y_a1_proc_1 >= -1282
 c109: u_a9 - u_a1 - 1111 y_a1_proc_0 >= -1282
 c110: u_a1 - u_a9 - 1182 y_a9_proc_1 >= -1259
 c111: u_a1 - u_a9 - 1270 y_a9_proc_0 >= -1259
 c112: u_a3 - u_a2 - 787 y_a2_proc_1 >= 0
 c113: u_a2 - u_a3 - 1205 y_a3_proc_1 >= -1
 c114: u_a4 - u_a2 - 787 y_a2_proc_1 >= -1
 c115: u_a4 - u_a2 - 946 y_a2_proc_0 >= -2541
 c116: u_a2 - u_a4 - 506 y_a4_proc_1 >= 0
 c117: u_a2 - u_a4 - 915 y_a4_proc_0 >= -2540
 c118: u_a5 - u_a2 - 787 y_a2_proc_1 >= -1282
 c119: u_a5 - u_a2 - 946 y_a2_proc_0 >= -1282
 c120: u_a2 - u_a5 - 1140 y_a5_proc_1 >= -1259
 c121: u_a2 - u_a5 - 845 y_a5_proc_0 >= -1259
 c122: u_a6 - u_a2 - 946 y_a2_proc_0 >= -1259
 c123: u_a2 - u_a6 - 897 y_a6_proc_0 >= -1282
 c124: u_a7 - u_a2 - 787 y_a2_proc_1 >= -1
 c125: u_a2 - u_a7 - 1025 y_a7_proc_1 >= 0
 c126: u_a8 - u_a2 - 787 y_a2_proc_1 >= -1282
 c127: u_a8 - u_a2 - 946 y_a2_proc_0 >= -1282
 c128: u_a2 - u_a8 - 1173 y_a8_proc_1 >= -1259
 c129: u_a2 - u_a8 - 1155 y_a8_proc_0 >= -1259
 c130: u_a9 - u_a2 - 787 y_a2_proc_1 >= -2
 c131: u_a9 - u_a2 - 946 y_a2_proc_0 >= -2542
 c132: u_a2 - u_a9 - 1182 y_a9_proc_1 >= 1
 c133: u_a2 - u_a9 - 1270 y_a9_proc_0 >= -2539
 c134: u_a4 - u_a3 - 1205 y_a3_proc_1 >= -2
 c135: u_a3 - u_a4 - 506 y_a4_proc_1 >= 1
 c136: u_a5 - u_a3 - 1205 y_a3_proc_1 >= -1282
 c137: u_a3 - u_a5 - 1140 y_a5_proc_1 >= -1259
 c138: u_a7 - u_a3 - 1205 y_a3_proc_1 >= -1
 c139: u_a3 - u_a7 - 1025 y_a7_proc_1 >= 0
 c140: u_a8 - u_a3 - 1205 y_a3_proc_1 >= -1259
 c141: u_a3 - u_a8 - 1173 y_a8_proc_1 >= -1282
 c142: u_a9 - u_a3 - 1205 y_a3_proc_1 >= -2
 c143: u_a3 - u_a9 - 1182 y_a9_proc_1 >= 1
 c144: u_a5 - u_a4 - 506 y_a4_proc_1 >= -1282
 c145: u_a5 - u_a4 - 915 y_a4_proc_0 >= -1282
 c146: u_a4 - u_a5 - 1140 y_a5_proc_1 >= -1259
 c147: u_a4 - u_a5 - 845 y_a5_proc_0 >= -1259
 c148: u_a6 - u_a4 - 915 y_a4_proc_0 >= -1259
 c149: u_a4 - u_a6 - 897 y_a6_proc_0 >= -1282
 c150: u_a7 - u_a4 - 506 y_a4_proc_1 >= 0
 c151: u_a4 - u_a7 - 1025 y_a7_proc_1 >= -1
 c152: u_a8 - u_a4 - 506 y_a4_proc_1 >= -1282
 c153: u_a8 - u_a4 - 915 y_a4_proc_0 >= -1282
 c154: u_a4 - u_a8 - 1173 y_a8_proc_1 >= -1259
 c155: u_a4 - u_a8 - 1155 y_a8_proc_0 >= -1259
 c156: u_a9 - u_a4 - 506 y_a4_proc_1 >= -1
 c157: u_a9 - u_a4 - 915 y_a4_proc_0 >= -2541
 c158: u_a4 - u_a9 - 1182 y_a9_proc_1 >= 0
 c159: u_a4 - u_a9 - 1270 y_a9_proc_0 >= -2540
 c160: u_a6 - u_a5 - 845 y_a5_proc_0 >= 0
 c161: u_a5 - u_a6 - 897 y_a6_proc_0 >= -1
 c162: u_a7 - u_a5 - 1140 y_a5_proc_1 >= -1282
 c163: u_a5 - u_a7 - 1025 y_a7_proc_1 >= -1259
 c164: u_a8 - u_a5 - 1140 y_a5_proc_1 >= -2541
 c165: u_a8 - u_a5 - 845 y_a5_proc_0 >= -1
 c166: u_a5 - u_a8 - 1173 y_a8_proc_1 >= -2540
 c167: u_a5 - u_a8 - 1155 y_a8_proc_0 >= 0
 c168: u_a9 - u_a5 - 1140 y_a5_proc_1 >= -1259
 c169: u_a9 - u_a5 - 845 y_a5_proc_0 >= -1259
 c170: u_a5 - u_a9 - 1182 y_a9_proc_1 >= -1282
 c171: u_a5 - u_a9 - 1270 y_a9_proc_0 >= -1282
 c172: u_a8 - u_a6 - 897 y_a6_proc_0 >= -1
 c173: u_a6 - u_a8 - 1155 y_a8_proc_0 >= 0
 c174: u_a9 - u_a6 - 897 y_a6_proc_0 >= -1259
 c175: u_a6 - u_a9 - 1270 y_a9_proc_0 >= -1282
 c176: u_a8 - u_a7 - 1025 y_a7_proc_1 >= -1282
 c177: u_a7 - u_a8 - 1173 y_a8_proc_1 >= -1259
 c178: u_a9 - u_a7 - 1025 y_a7_proc_1 >= -1
 c179: u_a7 - u_a9 - 1182 y_a9_proc_1 >= 0
 c180: u_a9 - u_a8 - 1173 y_a8_proc_1 >= -1282
 c181: u_a9 - u_a8 - 1155 y_a8_proc_0 >= -1282
 c182: u_a8 - u_a9 - 1182 y_a9_proc_1 >= -1259
 c183: u_a8 - u_a9 - 1270 y_a9_proc_0 >= -1259

Bounds
End
