benchmark/results/graph__10-1000-0.10-02_10/graph__10-1000-0.10-02_10_QuintonOs_Benders_primal_sub.txt
solution for: Quinton Bounded Benders_primal_sub
objective: 0.000205297
status: OPTIMAL_SOLUTION(2)
u_a0=1.228
u_a1=1.000
u_a2=1.243
u_a3=1.542
u_a4=0.438
u_a5=0.827
u_a6=1.405
u_a7=0.790
u_a8=0.589
tau=0.000
y_a0_proc_0=0.000
y_a1_proc_0=0.000
y_a2_proc_1=0.000
y_a3_proc_1=0.000
y_a4_proc_1=0.000
y_a5_proc_0=0.000
y_a6_proc_0=0.000
y_a7_proc_1=0.000
y_a8_proc_0=0.000
y_a9_proc_1=0.000
